experiment/data/hgs-res/Vrp-Set-B-n78/Vrp-Set-B-n78-hgs/0.hgs1.vrp
NAME : 0
COMMENT : CVRP Instance
TYPE : CVRP
DIMENSION : 78
EDGE_WEIGHT_TYPE : EUC_2D
CAPACITY : 100
NODE_COORD_SECTION
1	46.0	12.0
2	51.0	4.0
3	52.0	30.0
4	80.0	70.0
5	18.0	90.0
6	59.0	39.0
7	23.0	59.0
8	77.0	48.0
9	82.0	30.0
10	18.0	82.0
11	11.0	41.0
12	7.0	9.0
13	88.0	33.0
14	23.0	88.0
15	0.0	76.0
16	85.0	34.0
17	17.0	46.0
18	52.0	10.0
19	13.0	45.0
20	19.0	85.0
21	86.0	77.0
22	54.0	6.0
23	83.0	32.0
24	15.0	10.0
25	53.0	5.0
26	14.0	42.0
27	13.0	10.0
28	57.0	32.0
29	20.0	85.0
30	65.0	46.0
31	61.0	42.0
32	87.0	52.0
33	79.0	51.0
34	25.0	91.0
35	89.0	34.0
36	26.0	100.0
37	0.0	88.0
38	63.0	43.0
39	55.0	10.0
40	23.0	86.0
41	8.0	18.0
42	0.0	74.0
43	20.0	44.0
44	56.0	7.0
45	14.0	10.0
46	88.0	40.0
47	96.0	38.0
48	59.0	31.0
49	22.0	87.0
50	59.0	36.0
51	24.0	83.0
52	83.0	37.0
53	53.0	5.0
54	0.0	37.0
55	84.0	78.0
56	27.0	93.0
57	61.0	12.0
58	69.0	43.0
59	54.0	9.0
60	20.0	98.0
61	18.0	50.0
62	25.0	84.0
63	31.0	69.0
64	58.0	36.0
65	0.0	11.0
66	61.0	36.0
67	18.0	49.0
68	57.0	8.0
69	0.0	49.0
70	56.0	8.0
71	62.0	45.0
72	83.0	32.0
73	53.0	10.0
74	82.0	53.0
75	21.0	85.0
76	64.0	41.0
77	80.0	50.0
78	16.0	10.0
DEMAND_SECTION
1	0
2	14
3	17
4	17
5	16
6	19
7	17
8	5
9	12
10	4
11	2
12	2
13	26
14	2
15	7
16	18
17	6
18	6
19	18
20	2
21	14
22	5
23	9
24	4
25	3
26	15
27	4
28	23
29	7
30	21
31	4
32	1
33	6
34	16
35	4
36	20
37	5
38	14
39	14
40	26
41	5
42	2
43	14
44	11
45	21
46	20
47	18
48	2
49	19
50	12
51	22
52	14
53	23
54	25
55	8
56	3
57	9
58	21
59	3
60	22
61	6
62	2
63	22
64	20
65	5
66	13
67	6
68	14
69	16
70	12
71	23
72	5
73	12
74	15
75	21
76	4
77	23
78	19
DEPOT_SECTION
1
-1
EOF
