experiment/data/hgs-res/Vrp-Set-B-n78/Vrp-Set-B-n78-hgs/0.hgs1.tour
Route #1: 77 23 44 26 11 64 40
Route #2: 1 52 24 21 43 67 69 72 17
Route #3: 71 22 15 34 12 8 56 38 58
Route #4: 7 76 73 31 46 45 51
Route #5: 65 75 57 29 70 37 30
Route #6: 27 49 5 63 2
Route #7: 66 60 6 62 54 20 3 32 47
Route #8: 50 61 39 48 74 28
Route #9: 9 19 13 33 55 35 59 4 36 14 41
Route #10: 53 68 10 25 18 16 42
Cost 1227.9
